Solver command line: ['C:\\Program Files\\IBM\\ILOG\\CPLEX_Studio2211\\cplex\\bin\\x64_win64\\cplex.exe']


Welcome to IBM(R) ILOG(R) CPLEX(R) Interactive Optimizer 22.1.1.0
  with Simplex, Mixed Integer & Barrier Optimizers
5725-A06 5725-A29 5724-Y48 5724-Y49 5724-Y54 5724-Y55 5655-Y21
Copyright IBM Corp. 1988, 2022.  All Rights Reserved.

Type 'help' for a list of available commands.
Type 'help' followed by a command name for more
information on commands.

CPLEX> Logfile 'cplex.log' closed.
Logfile 'C:\Users\wangy\Documents\GitHub\re_optimization\result_site_specific\tmp9q_9qkje.cplex.log' open.
CPLEX> Problem 'C:\Users\wangy\Documents\GitHub\re_optimization\result_site_specific\tmptk8ucc9o.pyomo.lp' read.
Read time = 0.28 sec. (9.13 ticks)
CPLEX> Problem name         : C:\Users\wangy\Documents\GitHub\re_optimization\result_site_specific\tmptk8ucc9o.pyomo.lp
Objective sense      : Minimize
Variables            :   65769  [Nneg: 35068,  Free: 8792,  Binary: 9,
                                 Other: 21900]
Objective nonzeros   :      17
Linear constraints   :   87665  [Less: 46741,  Greater: 5,  Equal: 40919]
  Nonzeros           :  225084
  RHS nonzeros       :    3655

Variables            : Min LB: 0.000000         Max UB: 1.000000       
Objective nonzeros   : Min   : 1.000000         Max   : 1.000000       
Linear constraints   :
  Nonzeros           : Min   : 0.002144140      Max   : 100000.0       
  RHS nonzeros       : Min   : 0.06100000       Max   : 100000.0       
CPLEX> Version identifier: 22.1.1.0 | 2022-11-27 | 9160aff4d
Tried aggregator 3 times.
MIP Presolve eliminated 53111 rows and 32668 columns.
Aggregator did 10744 substitutions.
Reduced MIP has 23810 rows, 22357 columns, and 71576 nonzeros.
Reduced MIP has 5 binaries, 0 generals, 0 SOSs, and 0 indicators.
Presolve time = 0.20 sec. (227.01 ticks)
Found incumbent of value 233004.091308 after 0.28 sec. (327.57 ticks)
Probing time = 0.00 sec. (1.24 ticks)
Tried aggregator 1 time.
Detecting symmetries...
Reduced MIP has 23810 rows, 22357 columns, and 71576 nonzeros.
Reduced MIP has 5 binaries, 0 generals, 0 SOSs, and 0 indicators.
Presolve time = 0.03 sec. (45.93 ticks)
Probing time = 0.02 sec. (1.15 ticks)
MIP emphasis: balance optimality and feasibility.
MIP search method: dynamic search.
Parallel mode: deterministic, using up to 16 threads.
Root relaxation solution time = 1.41 sec. (1027.12 ticks)

        Nodes                                         Cuts/
   Node  Left     Objective  IInf  Best Integer    Best Bound    ItCnt     Gap

*     0+    0                       233004.0913   -11720.0298           105.03%
      0     0     7847.5903     1   233004.0913     7847.5903       82   96.63%
*     0+    0                         9452.1889     7847.5903            16.98%
*     0+    0                         8710.4192     7847.5903             9.91%
      0     0        cutoff           8710.4192                    707    0.00%
Elapsed time = 2.05 sec. (1886.87 ticks, tree = 0.01 MB, solutions = 3)

Root node processing (before b&c):
  Real time             =    2.06 sec. (1890.04 ticks)
Parallel b&c, 16 threads:
  Real time             =    0.00 sec. (0.00 ticks)
  Sync time (average)   =    0.00 sec.
  Wait time (average)   =    0.00 sec.
                          ------------
Total (root+branch&cut) =    2.06 sec. (1890.04 ticks)

Solution pool: 3 solutions saved.

MIP - Integer optimal solution:  Objective =  8.7104192422e+03
Solution time =    2.06 sec.  Iterations = 707  Nodes = 0
Deterministic time = 1890.23 ticks  (916.25 ticks/sec)

CPLEX> Incumbent solution written to file 'C:\Users\wangy\Documents\GitHub\re_optimization\result_site_specific\tmp0vn87bbi.cplex.sol'.
CPLEX> 
